c This is QMaxSAT 2017 based on 14.07
c This is Glucose 3.0
c This is MiniSat 2.2.0
c WARNING: for repeatability, setting FPU to use double precision
c card = mrwto, comp = 0, pmodel = 0, narr = 29, mct = 76, verb = 0
cr firstCPXsol 0 0 0
c top = 189219
c |  Number of variables:    21632                                            |
c |  Number of clauses:      1812808                                          |
c |  Weight of hard clauses: 189219                                           |
c |  Number of soft clauses: 287100                                           |
c |  Number of unit soft clauses: 0                                           |
c |  Maximum Cardinality (by unit): 9329706      (0           )               |
c last restart ## conflicts  :  1 6632 
o 855 | cpuTime 2.75821 s
c Sum of weights = 321714
c A number of soft clauses remained = 9900
c MRWTO encoding for Pseudo-Boolean Constraints
c sizeMax=855
c No.0 Divisor=10	generated by pow1
c No.1 Divisor=10	generated by pow1
c No.2 Divisor=10	generated by pow1
c p0= 10	p1= 10	p2= 10	
c number of digits = 4
c linkingVar[0].size = 10, linkingVar[1].size = 10, linkingVar[2].size = 9, linkingVar[3].size = 1, 
c Pseudo-Boolean Constraints: 179798 variables and 1410446 clauses
c Sum of weights = 321714
c A number of soft clauses remained = 9900
c MRWTO encoding for Pseudo-Boolean Constraints
c sizeMax=855
c No.0 Divisor=10	generated by pow1
c No.1 Divisor=10	generated by pow1
c No.2 Divisor=10	generated by pow1
c p0= 10	p1= 10	p2= 10	
c number of digits = 4
c linkingVar[0].size = 10, linkingVar[1].size = 10, linkingVar[2].size = 9, linkingVar[3].size = 1, 
c Pseudo-Boolean Constraints: 179798 variables and 1410446 clauses
c Sum of weights = 321714
c A number of soft clauses remained = 9900
c MRWTO encoding for Pseudo-Boolean Constraints
c sizeMax=855
c No.0 Divisor=10	generated by pow1
c No.1 Divisor=10	generated by pow1
c No.2 Divisor=10	generated by pow1
c p0= 10	p1= 10	p2= 10	
c number of digits = 4
c linkingVar[0].size = 10, linkingVar[1].size = 10, linkingVar[2].size = 9, linkingVar[3].size = 1, 
c Pseudo-Boolean Constraints: 179798 variables and 1410446 clauses
c Sum of weights = 321714
c A number of soft clauses remained = 9900
c MRWTO encoding for Pseudo-Boolean Constraints
c sizeMax=855
c No.0 Divisor=10	generated by pow1
c No.1 Divisor=10	generated by pow1
c No.2 Divisor=10	generated by pow1
c p0= 10	p1= 10	p2= 10	
c number of digits = 4
c linkingVar[0].size = 10, linkingVar[1].size = 10, linkingVar[2].size = 9, linkingVar[3].size = 1, 
c Pseudo-Boolean Constraints: 179798 variables and 1410446 clauses
c Sum of weights = 321714
c A number of soft clauses remained = 9900
c MRWTO encoding for Pseudo-Boolean Constraints
c sizeMax=855
c No.0 Divisor=10	generated by pow1
c No.1 Divisor=10	generated by pow1
c No.2 Divisor=10	generated by pow1
c p0= 10	p1= 10	p2= 10	
c number of digits = 4
c linkingVar[0].size = 10, linkingVar[1].size = 10, linkingVar[2].size = 9, linkingVar[3].size = 1, 
c Pseudo-Boolean Constraints: 179798 variables and 1410446 clauses
c Sum of weights = 321714
c A number of soft clauses remained = 9900
c MRWTO encoding for Pseudo-Boolean Constraints
c sizeMax=855
c No.0 Divisor=10	generated by pow1
c No.1 Divisor=10	generated by pow1
c No.2 Divisor=10	generated by pow1
c p0= 10	p1= 10	p2= 10	
c number of digits = 4
c linkingVar[0].size = 10, linkingVar[1].size = 10, linkingVar[2].size = 9, linkingVar[3].size = 1, 
c Pseudo-Boolean Constraints: 179798 variables and 1410446 clauses
c Sum of weights = 321714
c A number of soft clauses remained = 9900
c MRWTO encoding for Pseudo-Boolean Constraints
c sizeMax=855
c No.0 Divisor=10	generated by pow1
c No.1 Divisor=10	generated by pow1
c No.2 Divisor=10	generated by pow1
c p0= 10	p1= 10	p2= 10	
c number of digits = 4
c linkingVar[0].size = 10, linkingVar[1].size = 10, linkingVar[2].size = 9, linkingVar[3].size = 1, 
c Pseudo-Boolean Constraints: 179798 variables and 1410446 clauses
c Sum of weights = 321714
c A number of soft clauses remained = 9900
c MRWTO encoding for Pseudo-Boolean Constraints
c sizeMax=855
c No.0 Divisor=10	generated by pow1
c No.1 Divisor=10	generated by pow1
c No.2 Divisor=10	generated by pow1
c p0= 10	p1= 10	p2= 10	
c number of digits = 4
c linkingVar[0].size = 10, linkingVar[1].size = 10, linkingVar[2].size = 9, linkingVar[3].size = 1, 
c Pseudo-Boolean Constraints: 179798 variables and 1410446 clauses
c Sum of weights = 321714
c A number of soft clauses remained = 9900
c MRWTO encoding for Pseudo-Boolean Constraints
c sizeMax=855
c No.0 Divisor=10	generated by pow1
c No.1 Divisor=10	generated by pow1
c No.2 Divisor=10	generated by pow1
c p0= 10	p1= 10	p2= 10	
c number of digits = 4
c linkingVar[0].size = 10, linkingVar[1].size = 10, linkingVar[2].size = 9, linkingVar[3].size = 1, 
c Pseudo-Boolean Constraints: 179798 variables and 1410446 clauses
c Sum of weights = 321714
c A number of soft clauses remained = 9900
c MRWTO encoding for Pseudo-Boolean Constraints
c sizeMax=855
c No.0 Divisor=10	generated by pow1
c No.1 Divisor=10	generated by pow1
c No.2 Divisor=10	generated by pow1
c p0= 10	p1= 10	p2= 10	
c number of digits = 4
c linkingVar[0].size = 10, linkingVar[1].size = 10, linkingVar[2].size = 9, linkingVar[3].size = 1, 
c Pseudo-Boolean Constraints: 179798 variables and 1410446 clauses
c Sum of weights = 321714
c A number of soft clauses remained = 9900
c MRWTO encoding for Pseudo-Boolean Constraints
c sizeMax=855
c No.0 Divisor=10	generated by pow1
c No.1 Divisor=10	generated by pow1
c No.2 Divisor=10	generated by pow1
c p0= 10	p1= 10	p2= 10	
c number of digits = 4
c linkingVar[0].size = 10, linkingVar[1].size = 10, linkingVar[2].size = 9, linkingVar[3].size = 1, 
c Pseudo-Boolean Constraints: 179798 variables and 1410446 clauses
c Sum of weights = 321714
c A number of soft clauses remained = 9900
c MRWTO encoding for Pseudo-Boolean Constraints
c sizeMax=855
c No.0 Divisor=10	generated by pow1
c No.1 Divisor=10	generated by pow1
c No.2 Divisor=10	generated by pow1
c p0= 10	p1= 10	p2= 10	
c number of digits = 4
c linkingVar[0].size = 10, linkingVar[1].size = 10, linkingVar[2].size = 9, linkingVar[3].size = 1, 
c Pseudo-Boolean Constraints: 179798 variables and 1410446 clauses
c Sum of weights = 321714
c A number of soft clauses remained = 9900
c MRWTO encoding for Pseudo-Boolean Constraints
c sizeMax=855
c No.0 Divisor=10	generated by pow1
c No.1 Divisor=10	generated by pow1
c No.2 Divisor=10	generated by pow1
c p0= 10	p1= 10	p2= 10	
c number of digits = 4
c linkingVar[0].size = 10, linkingVar[1].size = 10, linkingVar[2].size = 9, linkingVar[3].size = 1, 
c Pseudo-Boolean Constraints: 179798 variables and 1410446 clauses
c Sum of weights = 321714
c A number of soft clauses remained = 9900
c MRWTO encoding for Pseudo-Boolean Constraints
c sizeMax=855
c No.0 Divisor=10	generated by pow1
c No.1 Divisor=10	generated by pow1
c No.2 Divisor=10	generated by pow1
c p0= 10	p1= 10	p2= 10	
c number of digits = 4
c linkingVar[0].size = 10, linkingVar[1].size = 10, linkingVar[2].size = 9, linkingVar[3].size = 1, 
c Pseudo-Boolean Constraints: 179798 variables and 1410446 clauses
c Sum of weights = 321714
c A number of soft clauses remained = 9900
c MRWTO encoding for Pseudo-Boolean Constraints
c sizeMax=855
c No.0 Divisor=10	generated by pow1
c No.1 Divisor=10	generated by pow1
c No.2 Divisor=10	generated by pow1
c p0= 10	p1= 10	p2= 10	
c number of digits = 4
c linkingVar[0].size = 10, linkingVar[1].size = 10, linkingVar[2].size = 9, linkingVar[3].size = 1, 
c Pseudo-Boolean Constraints: 179798 variables and 1410446 clauses
c Sum of weights = 321714
c A number of soft clauses remained = 9900
c MRWTO encoding for Pseudo-Boolean Constraints
c sizeMax=855
c No.0 Divisor=10	generated by pow1
c No.1 Divisor=10	generated by pow1
c No.2 Divisor=10	generated by pow1
c p0= 10	p1= 10	p2= 10	
c number of digits = 4
c linkingVar[0].size = 10, linkingVar[1].size = 10, linkingVar[2].size = 9, linkingVar[3].size = 1, 
c Pseudo-Boolean Constraints: 179798 variables and 1410446 clauses
c Sum of weights = 321714
c A number of soft clauses remained = 9900
c MRWTO encoding for Pseudo-Boolean Constraints
c sizeMax=855
c No.0 Divisor=10	generated by pow1
c No.1 Divisor=10	generated by pow1
c No.2 Divisor=10	generated by pow1
c p0= 10	p1= 10	p2= 10	
c number of digits = 4
c linkingVar[0].size = 10, linkingVar[1].size = 10, linkingVar[2].size = 9, linkingVar[3].size = 1, 
c Pseudo-Boolean Constraints: 179798 variables and 1410446 clauses
c Sum of weights = 321714
c A number of soft clauses remained = 9900
c MRWTO encoding for Pseudo-Boolean Constraints
c sizeMax=855
c No.0 Divisor=10	generated by pow1
c No.1 Divisor=10	generated by pow1
c No.2 Divisor=10	generated by pow1
c p0= 10	p1= 10	p2= 10	
c number of digits = 4
c linkingVar[0].size = 10, linkingVar[1].size = 10, linkingVar[2].size = 9, linkingVar[3].size = 1, 
c Pseudo-Boolean Constraints: 179798 variables and 1410446 clauses
c Sum of weights = 321714
c A number of soft clauses remained = 9900
c MRWTO encoding for Pseudo-Boolean Constraints
c sizeMax=855
c No.0 Divisor=10	generated by pow1
c No.1 Divisor=10	generated by pow1
c No.2 Divisor=10	generated by pow1
c p0= 10	p1= 10	p2= 10	
c number of digits = 4
c linkingVar[0].size = 10, linkingVar[1].size = 10, linkingVar[2].size = 9, linkingVar[3].size = 1, 
c Pseudo-Boolean Constraints: 179798 variables and 1410446 clauses
c Sum of weights = 321714
c A number of soft clauses remained = 9900
c MRWTO encoding for Pseudo-Boolean Constraints
c sizeMax=855
c No.0 Divisor=10	generated by pow1
c No.1 Divisor=10	generated by pow1
c No.2 Divisor=10	generated by pow1
c p0= 10	p1= 10	p2= 10	
c number of digits = 4
c linkingVar[0].size = 10, linkingVar[1].size = 10, linkingVar[2].size = 9, linkingVar[3].size = 1, 
c Pseudo-Boolean Constraints: 179798 variables and 1410446 clauses
c Sum of weights = 321714
c A number of soft clauses remained = 9900
c MRWTO encoding for Pseudo-Boolean Constraints
c sizeMax=855
c No.0 Divisor=10	generated by pow1
c No.1 Divisor=10	generated by pow1
c No.2 Divisor=10	generated by pow1
c p0= 10	p1= 10	p2= 10	
c number of digits = 4
c linkingVar[0].size = 10, linkingVar[1].size = 10, linkingVar[2].size = 9, linkingVar[3].size = 1, 
c Pseudo-Boolean Constraints: 179798 variables and 1410446 clauses
c Sum of weights = 321714
c A number of soft clauses remained = 9900
c MRWTO encoding for Pseudo-Boolean Constraints
c sizeMax=855
c No.0 Divisor=10	generated by pow1
c No.1 Divisor=10	generated by pow1
c No.2 Divisor=10	generated by pow1
c p0= 10	p1= 10	p2= 10	
c number of digits = 4
c linkingVar[0].size = 10, linkingVar[1].size = 10, linkingVar[2].size = 9, linkingVar[3].size = 1, 
c Pseudo-Boolean Constraints: 179798 variables and 1410446 clauses
c Sum of weights = 321714
c A number of soft clauses remained = 9900
c MRWTO encoding for Pseudo-Boolean Constraints
c sizeMax=855
c No.0 Divisor=10	generated by pow1
c No.1 Divisor=10	generated by pow1
c No.2 Divisor=10	generated by pow1
c p0= 10	p1= 10	p2= 10	
c number of digits = 4
c linkingVar[0].size = 10, linkingVar[1].size = 10, linkingVar[2].size = 9, linkingVar[3].size = 1, 
c Pseudo-Boolean Constraints: 179798 variables and 1410446 clauses
c Sum of weights = 321714
c A number of soft clauses remained = 9900
c MRWTO encoding for Pseudo-Boolean Constraints
c sizeMax=855
c No.0 Divisor=10	generated by pow1
c No.1 Divisor=10	generated by pow1
c No.2 Divisor=10	generated by pow1
c p0= 10	p1= 10	p2= 10	
c number of digits = 4
c linkingVar[0].size = 10, linkingVar[1].size = 10, linkingVar[2].size = 9, linkingVar[3].size = 1, 
c Pseudo-Boolean Constraints: 179798 variables and 1410446 clauses
c Sum of weights = 321714
c A number of soft clauses remained = 9900
c MRWTO encoding for Pseudo-Boolean Constraints
c sizeMax=855
c No.0 Divisor=10	generated by pow1
c No.1 Divisor=10	generated by pow1
c No.2 Divisor=10	generated by pow1
c p0= 10	p1= 10	p2= 10	
c number of digits = 4
c linkingVar[0].size = 10, linkingVar[1].size = 10, linkingVar[2].size = 9, linkingVar[3].size = 1, 
c Pseudo-Boolean Constraints: 179798 variables and 1410446 clauses
c Sum of weights = 321714
c A number of soft clauses remained = 9900
c MRWTO encoding for Pseudo-Boolean Constraints
c sizeMax=855
c No.0 Divisor=10	generated by pow1
c No.1 Divisor=10	generated by pow1
c No.2 Divisor=10	generated by pow1
c p0= 10	p1= 10	p2= 10	
c number of digits = 4
c linkingVar[0].size = 10, linkingVar[1].size = 10, linkingVar[2].size = 9, linkingVar[3].size = 1, 
c Pseudo-Boolean Constraints: 179798 variables and 1410446 clauses
c Sum of weights = 321714
c A number of soft clauses remained = 9900
c MRWTO encoding for Pseudo-Boolean Constraints
c sizeMax=855
c No.0 Divisor=10	generated by pow1
c No.1 Divisor=10	generated by pow1
c No.2 Divisor=10	generated by pow1
c p0= 10	p1= 10	p2= 10	
c number of digits = 4
c linkingVar[0].size = 10, linkingVar[1].size = 10, linkingVar[2].size = 9, linkingVar[3].size = 1, 
c Pseudo-Boolean Constraints: 179798 variables and 1410446 clauses
c Sum of weights = 321714
c A number of soft clauses remained = 9900
c MRWTO encoding for Pseudo-Boolean Constraints
c sizeMax=855
c No.0 Divisor=10	generated by pow1
c No.1 Divisor=10	generated by pow1
c No.2 Divisor=10	generated by pow1
c p0= 10	p1= 10	p2= 10	
c number of digits = 4
c linkingVar[0].size = 10, linkingVar[1].size = 10, linkingVar[2].size = 9, linkingVar[3].size = 1, 
c Pseudo-Boolean Constraints: 179798 variables and 1410446 clauses
c Sum of weights = 321714
c A number of soft clauses remained = 9900
c MRWTO encoding for Pseudo-Boolean Constraints
c sizeMax=855
c No.0 Divisor=10	generated by pow1
c No.1 Divisor=10	generated by pow1
c No.2 Divisor=10	generated by pow1
c p0= 10	p1= 10	p2= 10	
c number of digits = 4
c linkingVar[0].size = 10, linkingVar[1].size = 10, linkingVar[2].size = 9, linkingVar[3].size = 1, 
c Pseudo-Boolean Constraints: 179798 variables and 1410446 clauses
c last restart ## conflicts  :  131 163167 
o 527 | cpuTime 44.394 s
c last restart ## conflicts  :  369 57826 
o 429 | cpuTime 53.5714 s
c last restart ## conflicts  :  147 103289 
o 280 | cpuTime 91.2699 s
c last restart ## conflicts  :  170 39360 
o 240 | cpuTime 113.4 s
c last restart ## conflicts  :  641 45437 
o 235 | cpuTime 129.386 s
c last restart ## conflicts  :  336 79281 
o 232 | cpuTime 272.927 s
c last restart ## conflicts  :  476 106965 
o 227 | cpuTime 382.388 s
c last restart ## conflicts  :  424 58479 
o 226 | cpuTime 471.336 s
c last restart ## conflicts  :  433 36143 
o 210 | cpuTime 625.171 s
c last restart ## conflicts  :  664 68593 
o 184 | cpuTime 675.994 s
c last restart ## conflicts  :  285 29867 
o 182 | cpuTime 1378.88 s
c last restart ## conflicts  :  274 44726 
o 174 | cpuTime 2465.78 s
c last restart ## conflicts  :  518 69475 
o 172 | cpuTime 3308.62 s
c last restart ## conflicts  :  331 47193 
o 170 | cpuTime 3384.26 s
s UNKNOWN
c Search is stopped by a limit (maybe time-limit)
cr positiVarArr: [ | 46(1->18) | 196(1->64) | 274(1->38) | 382(1->42) | 481(1->37) | 624(1->76) | 712(1->60) | 778(1->22) | 879(1->19) | 1033(1->69) | 1133(1->65) | 1184(1->12) | 1281(1->5) | 1395(1->15) | 1528(1->44) | 1598(1->10) | 1708(1->16) | 1862(1->66) | 1951(1->51) | 2049(1->45) | 2179(1->71) | 2221(1->9) | 2359(1->43) | 2422(1->2) | 2596(1->72) | 2687(1->59) | 2736(1->4) | 2897(1->61) | 2996(1->56) | 3017(2->1) | 3154(3->6) | 3314(4->62) | 3426(5->70) | 3434(6->1) | 3599(7->35) | 3667(8->1) | 3822(9->50) | 3896(10->20) | 3975(11->1) | 4133(12->49) | 4242(13->54) | 4319(14->27) | 4388(15->1) | 4493(16->1) | 4585(17->1) | 4691(18->1) | 4869(19->57) | 4944(20->28) | 5021(21->1) | 5131(22->7) | 5213(23->1) | 5371(24->39) | 5434(25->1) | 5553(26->13) | 5673(27->29) | 5738(28->1) | 5920(29->68) | 6019(30->63) | 6115(31->55) | 6158(32->1) | 6246(33->1) | 6424(34->52) | 6510(35->34) | 6556(36->1) | 6714(37->30) | 6819(38->31) | 6950(39->58) | 6993(40->1) | 7140(41->40) | 7207(42->3) | 7294(43->1) | 7453(44->41) | 7496(45->1) | 7620(46->1) | 7760(47->36) | 7810(48->1) | 7964(49->32) | 8089(50->53) | 8131(51->1) | 8292(52->48) | 8362(53->14) | 8498(54->46) | 8573(55->17) | 8684(56->24) | 8839(57->75) | 8894(58->26) | 8960(59->1) | 9065(60->1) | 9201(61->21) | 9271(62->1) | 9365(63->1) | 9500(64->8) | 9670(65->74) | 9711(66->11) | 9788(67->1) | 9941(68->33) | 10059(69->47) | 10139(70->23) | 10293(71->73) | 10349(72->25) | 10424(73->1) | 10511(74->1) | 10611(75->1) | 10807(76->67) | ]
cr the 1-th chain: [ 1->18->1 ] (#non-depot=1) {#cumul.=2}
cr the 2-th chain: [ 1->64->8->1 ] (#non-depot=2) {#cumul.=4}
cr the 3-th chain: [ 1->38->31->55->17->1 ] (#non-depot=4) {#cumul.=8}
cr the 4-th chain: [ 1->42->3->6->1 ] (#non-depot=3) {#cumul.=11}
cr the 5-th chain: [ 1->37->30->63->1 ] (#non-depot=3) {#cumul.=14}
cr the 6-th chain: [ 1->76->67->1 ] (#non-depot=2) {#cumul.=16}
cr the 7-th chain: [ 1->60->1 ] (#non-depot=1) {#cumul.=17}
cr the 8-th chain: [ 1->22->7->35->34->52->48->1 ] (#non-depot=6) {#cumul.=23}
cr the 9-th chain: [ 1->19->57->75->1 ] (#non-depot=3) {#cumul.=26}
cr the 10-th chain: [ 1->69->47->36->1 ] (#non-depot=3) {#cumul.=29}
cr the 11-th chain: [ 1->65->74->1 ] (#non-depot=2) {#cumul.=31}
cr the 12-th chain: [ 1->12->49->32->1 ] (#non-depot=3) {#cumul.=34}
cr the 13-th chain: [ 1->5->70->23->1 ] (#non-depot=3) {#cumul.=37}
cr the 14-th chain: [ 1->15->1 ] (#non-depot=1) {#cumul.=38}
cr the 15-th chain: [ 1->44->41->40->1 ] (#non-depot=3) {#cumul.=41}
cr the 16-th chain: [ 1->10->20->28->1 ] (#non-depot=3) {#cumul.=44}
cr the 17-th chain: [ 1->16->1 ] (#non-depot=1) {#cumul.=45}
cr the 18-th chain: [ 1->66->11->1 ] (#non-depot=2) {#cumul.=47}
cr the 19-th chain: [ 1->51->1 ] (#non-depot=1) {#cumul.=48}
cr the 20-th chain: [ 1->45->1 ] (#non-depot=1) {#cumul.=49}
cr the 21-th chain: [ 1->71->73->1 ] (#non-depot=2) {#cumul.=51}
cr the 22-th chain: [ 1->9->50->53->14->27->29->68->33->1 ] (#non-depot=8) {#cumul.=59}
cr the 23-th chain: [ 1->43->1 ] (#non-depot=1) {#cumul.=60}
cr the 24-th chain: [ 1->2->1 ] (#non-depot=1) {#cumul.=61}
cr the 25-th chain: [ 1->72->25->1 ] (#non-depot=2) {#cumul.=63}
cr the 26-th chain: [ 1->59->1 ] (#non-depot=1) {#cumul.=64}
cr the 27-th chain: [ 1->4->62->1 ] (#non-depot=2) {#cumul.=66}
cr the 28-th chain: [ 1->61->21->1 ] (#non-depot=2) {#cumul.=68}
cr the 29-th chain: [ 1->56->24->39->58->26->13->54->46->1 ] (#non-depot=8) {#cumul.=76}
c Latest Answer = 0 by 15 loops
c restarts              : 14861
c conflicts             : 2474025        (688 /sec)
c decisions             : 168343002      (0.00 % random) (46806 /sec)
c propagations          : 34648471253    (9633632 /sec)
c conflict literals     : 502623895      (26.93 % deleted)
c Memory used           : 5030.00 MB
c CPU time              : 3596.62 s
